*HEADING
3D DCB mode-I reference model, mesh generated by diffcohesive/mesh/specimens.py
**
*NODE
1, 0.0000000000, 0.0000000000, 0.0000000000
2, 2.0000000000, 0.0000000000, 0.0000000000
3, 4.0000000000, 0.0000000000, 0.0000000000
4, 6.0000000000, 0.0000000000, 0.0000000000
5, 8.0000000000, 0.0000000000, 0.0000000000
6, 10.0000000000, 0.0000000000, 0.0000000000
7, 12.0000000000, 0.0000000000, 0.0000000000
8, 14.0000000000, 0.0000000000, 0.0000000000
9, 16.0000000000, 0.0000000000, 0.0000000000
10, 18.0000000000, 0.0000000000, 0.0000000000
11, 20.0000000000, 0.0000000000, 0.0000000000
12, 22.0000000000, 0.0000000000, 0.0000000000
13, 24.0000000000, 0.0000000000, 0.0000000000
14, 26.0000000000, 0.0000000000, 0.0000000000
15, 28.0000000000, 0.0000000000, 0.0000000000
16, 30.0000000000, 0.0000000000, 0.0000000000
17, 32.0000000000, 0.0000000000, 0.0000000000
18, 34.0000000000, 0.0000000000, 0.0000000000
19, 36.0000000000, 0.0000000000, 0.0000000000
20, 38.0000000000, 0.0000000000, 0.0000000000
21, 40.0000000000, 0.0000000000, 0.0000000000
22, 42.0000000000, 0.0000000000, 0.0000000000
23, 44.0000000000, 0.0000000000, 0.0000000000
24, 46.0000000000, 0.0000000000, 0.0000000000
25, 48.0000000000, 0.0000000000, 0.0000000000
26, 50.0000000000, 0.0000000000, 0.0000000000
27, 52.0000000000, 0.0000000000, 0.0000000000
28, 54.0000000000, 0.0000000000, 0.0000000000
29, 56.0000000000, 0.0000000000, 0.0000000000
30, 58.0000000000, 0.0000000000, 0.0000000000
31, 60.0000000000, 0.0000000000, 0.0000000000
32, 0.0000000000, 1.0000000000, 0.0000000000
33, 2.0000000000, 1.0000000000, 0.0000000000
34, 4.0000000000, 1.0000000000, 0.0000000000
35, 6.0000000000, 1.0000000000, 0.0000000000
36, 8.0000000000, 1.0000000000, 0.0000000000
37, 10.0000000000, 1.0000000000, 0.0000000000
38, 12.0000000000, 1.0000000000, 0.0000000000
39, 14.0000000000, 1.0000000000, 0.0000000000
40, 16.0000000000, 1.0000000000, 0.0000000000
41, 18.0000000000, 1.0000000000, 0.0000000000
42, 20.0000000000, 1.0000000000, 0.0000000000
43, 22.0000000000, 1.0000000000, 0.0000000000
44, 24.0000000000, 1.0000000000, 0.0000000000
45, 26.0000000000, 1.0000000000, 0.0000000000
46, 28.0000000000, 1.0000000000, 0.0000000000
47, 30.0000000000, 1.0000000000, 0.0000000000
48, 32.0000000000, 1.0000000000, 0.0000000000
49, 34.0000000000, 1.0000000000, 0.0000000000
50, 36.0000000000, 1.0000000000, 0.0000000000
51, 38.0000000000, 1.0000000000, 0.0000000000
52, 40.0000000000, 1.0000000000, 0.0000000000
53, 42.0000000000, 1.0000000000, 0.0000000000
54, 44.0000000000, 1.0000000000, 0.0000000000
55, 46.0000000000, 1.0000000000, 0.0000000000
56, 48.0000000000, 1.0000000000, 0.0000000000
57, 50.0000000000, 1.0000000000, 0.0000000000
58, 52.0000000000, 1.0000000000, 0.0000000000
59, 54.0000000000, 1.0000000000, 0.0000000000
60, 56.0000000000, 1.0000000000, 0.0000000000
61, 58.0000000000, 1.0000000000, 0.0000000000
62, 60.0000000000, 1.0000000000, 0.0000000000
63, 0.0000000000, 2.0000000000, 0.0000000000
64, 2.0000000000, 2.0000000000, 0.0000000000
65, 4.0000000000, 2.0000000000, 0.0000000000
66, 6.0000000000, 2.0000000000, 0.0000000000
67, 8.0000000000, 2.0000000000, 0.0000000000
68, 10.0000000000, 2.0000000000, 0.0000000000
69, 12.0000000000, 2.0000000000, 0.0000000000
70, 14.0000000000, 2.0000000000, 0.0000000000
71, 16.0000000000, 2.0000000000, 0.0000000000
72, 18.0000000000, 2.0000000000, 0.0000000000
73, 20.0000000000, 2.0000000000, 0.0000000000
74, 22.0000000000, 2.0000000000, 0.0000000000
75, 24.0000000000, 2.0000000000, 0.0000000000
76, 26.0000000000, 2.0000000000, 0.0000000000
77, 28.0000000000, 2.0000000000, 0.0000000000
78, 30.0000000000, 2.0000000000, 0.0000000000
79, 32.0000000000, 2.0000000000, 0.0000000000
80, 34.0000000000, 2.0000000000, 0.0000000000
81, 36.0000000000, 2.0000000000, 0.0000000000
82, 38.0000000000, 2.0000000000, 0.0000000000
83, 40.0000000000, 2.0000000000, 0.0000000000
84, 42.0000000000, 2.0000000000, 0.0000000000
85, 44.0000000000, 2.0000000000, 0.0000000000
86, 46.0000000000, 2.0000000000, 0.0000000000
87, 48.0000000000, 2.0000000000, 0.0000000000
88, 50.0000000000, 2.0000000000, 0.0000000000
89, 52.0000000000, 2.0000000000, 0.0000000000
90, 54.0000000000, 2.0000000000, 0.0000000000
91, 56.0000000000, 2.0000000000, 0.0000000000
92, 58.0000000000, 2.0000000000, 0.0000000000
93, 60.0000000000, 2.0000000000, 0.0000000000
94, 0.0000000000, 3.0000000000, 0.0000000000
95, 2.0000000000, 3.0000000000, 0.0000000000
96, 4.0000000000, 3.0000000000, 0.0000000000
97, 6.0000000000, 3.0000000000, 0.0000000000
98, 8.0000000000, 3.0000000000, 0.0000000000
99, 10.0000000000, 3.0000000000, 0.0000000000
100, 12.0000000000, 3.0000000000, 0.0000000000
101, 14.0000000000, 3.0000000000, 0.0000000000
102, 16.0000000000, 3.0000000000, 0.0000000000
103, 18.0000000000, 3.0000000000, 0.0000000000
104, 20.0000000000, 3.0000000000, 0.0000000000
105, 22.0000000000, 3.0000000000, 0.0000000000
106, 24.0000000000, 3.0000000000, 0.0000000000
107, 26.0000000000, 3.0000000000, 0.0000000000
108, 28.0000000000, 3.0000000000, 0.0000000000
109, 30.0000000000, 3.0000000000, 0.0000000000
110, 32.0000000000, 3.0000000000, 0.0000000000
111, 34.0000000000, 3.0000000000, 0.0000000000
112, 36.0000000000, 3.0000000000, 0.0000000000
113, 38.0000000000, 3.0000000000, 0.0000000000
114, 40.0000000000, 3.0000000000, 0.0000000000
115, 42.0000000000, 3.0000000000, 0.0000000000
116, 44.0000000000, 3.0000000000, 0.0000000000
117, 46.0000000000, 3.0000000000, 0.0000000000
118, 48.0000000000, 3.0000000000, 0.0000000000
119, 50.0000000000, 3.0000000000, 0.0000000000
120, 52.0000000000, 3.0000000000, 0.0000000000
121, 54.0000000000, 3.0000000000, 0.0000000000
122, 56.0000000000, 3.0000000000, 0.0000000000
123, 58.0000000000, 3.0000000000, 0.0000000000
124, 60.0000000000, 3.0000000000, 0.0000000000
125, 0.0000000000, 4.0000000000, 0.0000000000
126, 2.0000000000, 4.0000000000, 0.0000000000
127, 4.0000000000, 4.0000000000, 0.0000000000
128, 6.0000000000, 4.0000000000, 0.0000000000
129, 8.0000000000, 4.0000000000, 0.0000000000
130, 10.0000000000, 4.0000000000, 0.0000000000
131, 12.0000000000, 4.0000000000, 0.0000000000
132, 14.0000000000, 4.0000000000, 0.0000000000
133, 16.0000000000, 4.0000000000, 0.0000000000
134, 18.0000000000, 4.0000000000, 0.0000000000
135, 20.0000000000, 4.0000000000, 0.0000000000
136, 22.0000000000, 4.0000000000, 0.0000000000
137, 24.0000000000, 4.0000000000, 0.0000000000
138, 26.0000000000, 4.0000000000, 0.0000000000
139, 28.0000000000, 4.0000000000, 0.0000000000
140, 30.0000000000, 4.0000000000, 0.0000000000
141, 32.0000000000, 4.0000000000, 0.0000000000
142, 34.0000000000, 4.0000000000, 0.0000000000
143, 36.0000000000, 4.0000000000, 0.0000000000
144, 38.0000000000, 4.0000000000, 0.0000000000
145, 40.0000000000, 4.0000000000, 0.0000000000
146, 42.0000000000, 4.0000000000, 0.0000000000
147, 44.0000000000, 4.0000000000, 0.0000000000
148, 46.0000000000, 4.0000000000, 0.0000000000
149, 48.0000000000, 4.0000000000, 0.0000000000
150, 50.0000000000, 4.0000000000, 0.0000000000
151, 52.0000000000, 4.0000000000, 0.0000000000
152, 54.0000000000, 4.0000000000, 0.0000000000
153, 56.0000000000, 4.0000000000, 0.0000000000
154, 58.0000000000, 4.0000000000, 0.0000000000
155, 60.0000000000, 4.0000000000, 0.0000000000
156, 0.0000000000, 0.0000000000, 2.0000000000
157, 2.0000000000, 0.0000000000, 2.0000000000
158, 4.0000000000, 0.0000000000, 2.0000000000
159, 6.0000000000, 0.0000000000, 2.0000000000
160, 8.0000000000, 0.0000000000, 2.0000000000
161, 10.0000000000, 0.0000000000, 2.0000000000
162, 12.0000000000, 0.0000000000, 2.0000000000
163, 14.0000000000, 0.0000000000, 2.0000000000
164, 16.0000000000, 0.0000000000, 2.0000000000
165, 18.0000000000, 0.0000000000, 2.0000000000
166, 20.0000000000, 0.0000000000, 2.0000000000
167, 22.0000000000, 0.0000000000, 2.0000000000
168, 24.0000000000, 0.0000000000, 2.0000000000
169, 26.0000000000, 0.0000000000, 2.0000000000
170, 28.0000000000, 0.0000000000, 2.0000000000
171, 30.0000000000, 0.0000000000, 2.0000000000
172, 32.0000000000, 0.0000000000, 2.0000000000
173, 34.0000000000, 0.0000000000, 2.0000000000
174, 36.0000000000, 0.0000000000, 2.0000000000
175, 38.0000000000, 0.0000000000, 2.0000000000
176, 40.0000000000, 0.0000000000, 2.0000000000
177, 42.0000000000, 0.0000000000, 2.0000000000
178, 44.0000000000, 0.0000000000, 2.0000000000
179, 46.0000000000, 0.0000000000, 2.0000000000
180, 48.0000000000, 0.0000000000, 2.0000000000
181, 50.0000000000, 0.0000000000, 2.0000000000
182, 52.0000000000, 0.0000000000, 2.0000000000
183, 54.0000000000, 0.0000000000, 2.0000000000
184, 56.0000000000, 0.0000000000, 2.0000000000
185, 58.0000000000, 0.0000000000, 2.0000000000
186, 60.0000000000, 0.0000000000, 2.0000000000
187, 0.0000000000, 1.0000000000, 2.0000000000
188, 2.0000000000, 1.0000000000, 2.0000000000
189, 4.0000000000, 1.0000000000, 2.0000000000
190, 6.0000000000, 1.0000000000, 2.0000000000
191, 8.0000000000, 1.0000000000, 2.0000000000
192, 10.0000000000, 1.0000000000, 2.0000000000
193, 12.0000000000, 1.0000000000, 2.0000000000
194, 14.0000000000, 1.0000000000, 2.0000000000
195, 16.0000000000, 1.0000000000, 2.0000000000
196, 18.0000000000, 1.0000000000, 2.0000000000
197, 20.0000000000, 1.0000000000, 2.0000000000
198, 22.0000000000, 1.0000000000, 2.0000000000
199, 24.0000000000, 1.0000000000, 2.0000000000
200, 26.0000000000, 1.0000000000, 2.0000000000
201, 28.0000000000, 1.0000000000, 2.0000000000
202, 30.0000000000, 1.0000000000, 2.0000000000
203, 32.0000000000, 1.0000000000, 2.0000000000
204, 34.0000000000, 1.0000000000, 2.0000000000
205, 36.0000000000, 1.0000000000, 2.0000000000
206, 38.0000000000, 1.0000000000, 2.0000000000
207, 40.0000000000, 1.0000000000, 2.0000000000
208, 42.0000000000, 1.0000000000, 2.0000000000
209, 44.0000000000, 1.0000000000, 2.0000000000
210, 46.0000000000, 1.0000000000, 2.0000000000
211, 48.0000000000, 1.0000000000, 2.0000000000
212, 50.0000000000, 1.0000000000, 2.0000000000
213, 52.0000000000, 1.0000000000, 2.0000000000
214, 54.0000000000, 1.0000000000, 2.0000000000
215, 56.0000000000, 1.0000000000, 2.0000000000
216, 58.0000000000, 1.0000000000, 2.0000000000
217, 60.0000000000, 1.0000000000, 2.0000000000
218, 0.0000000000, 2.0000000000, 2.0000000000
219, 2.0000000000, 2.0000000000, 2.0000000000
220, 4.0000000000, 2.0000000000, 2.0000000000
221, 6.0000000000, 2.0000000000, 2.0000000000
222, 8.0000000000, 2.0000000000, 2.0000000000
223, 10.0000000000, 2.0000000000, 2.0000000000
224, 12.0000000000, 2.0000000000, 2.0000000000
225, 14.0000000000, 2.0000000000, 2.0000000000
226, 16.0000000000, 2.0000000000, 2.0000000000
227, 18.0000000000, 2.0000000000, 2.0000000000
228, 20.0000000000, 2.0000000000, 2.0000000000
229, 22.0000000000, 2.0000000000, 2.0000000000
230, 24.0000000000, 2.0000000000, 2.0000000000
231, 26.0000000000, 2.0000000000, 2.0000000000
232, 28.0000000000, 2.0000000000, 2.0000000000
233, 30.0000000000, 2.0000000000, 2.0000000000
234, 32.0000000000, 2.0000000000, 2.0000000000
235, 34.0000000000, 2.0000000000, 2.0000000000
236, 36.0000000000, 2.0000000000, 2.0000000000
237, 38.0000000000, 2.0000000000, 2.0000000000
238, 40.0000000000, 2.0000000000, 2.0000000000
239, 42.0000000000, 2.0000000000, 2.0000000000
240, 44.0000000000, 2.0000000000, 2.0000000000
241, 46.0000000000, 2.0000000000, 2.0000000000
242, 48.0000000000, 2.0000000000, 2.0000000000
243, 50.0000000000, 2.0000000000, 2.0000000000
244, 52.0000000000, 2.0000000000, 2.0000000000
245, 54.0000000000, 2.0000000000, 2.0000000000
246, 56.0000000000, 2.0000000000, 2.0000000000
247, 58.0000000000, 2.0000000000, 2.0000000000
248, 60.0000000000, 2.0000000000, 2.0000000000
249, 0.0000000000, 3.0000000000, 2.0000000000
250, 2.0000000000, 3.0000000000, 2.0000000000
251, 4.0000000000, 3.0000000000, 2.0000000000
252, 6.0000000000, 3.0000000000, 2.0000000000
253, 8.0000000000, 3.0000000000, 2.0000000000
254, 10.0000000000, 3.0000000000, 2.0000000000
255, 12.0000000000, 3.0000000000, 2.0000000000
256, 14.0000000000, 3.0000000000, 2.0000000000
257, 16.0000000000, 3.0000000000, 2.0000000000
258, 18.0000000000, 3.0000000000, 2.0000000000
259, 20.0000000000, 3.0000000000, 2.0000000000
260, 22.0000000000, 3.0000000000, 2.0000000000
261, 24.0000000000, 3.0000000000, 2.0000000000
262, 26.0000000000, 3.0000000000, 2.0000000000
263, 28.0000000000, 3.0000000000, 2.0000000000
264, 30.0000000000, 3.0000000000, 2.0000000000
265, 32.0000000000, 3.0000000000, 2.0000000000
266, 34.0000000000, 3.0000000000, 2.0000000000
267, 36.0000000000, 3.0000000000, 2.0000000000
268, 38.0000000000, 3.0000000000, 2.0000000000
269, 40.0000000000, 3.0000000000, 2.0000000000
270, 42.0000000000, 3.0000000000, 2.0000000000
271, 44.0000000000, 3.0000000000, 2.0000000000
272, 46.0000000000, 3.0000000000, 2.0000000000
273, 48.0000000000, 3.0000000000, 2.0000000000
274, 50.0000000000, 3.0000000000, 2.0000000000
275, 52.0000000000, 3.0000000000, 2.0000000000
276, 54.0000000000, 3.0000000000, 2.0000000000
277, 56.0000000000, 3.0000000000, 2.0000000000
278, 58.0000000000, 3.0000000000, 2.0000000000
279, 60.0000000000, 3.0000000000, 2.0000000000
280, 0.0000000000, 4.0000000000, 2.0000000000
281, 2.0000000000, 4.0000000000, 2.0000000000
282, 4.0000000000, 4.0000000000, 2.0000000000
283, 6.0000000000, 4.0000000000, 2.0000000000
284, 8.0000000000, 4.0000000000, 2.0000000000
285, 10.0000000000, 4.0000000000, 2.0000000000
286, 12.0000000000, 4.0000000000, 2.0000000000
287, 14.0000000000, 4.0000000000, 2.0000000000
288, 16.0000000000, 4.0000000000, 2.0000000000
289, 18.0000000000, 4.0000000000, 2.0000000000
290, 20.0000000000, 4.0000000000, 2.0000000000
291, 22.0000000000, 4.0000000000, 2.0000000000
292, 24.0000000000, 4.0000000000, 2.0000000000
293, 26.0000000000, 4.0000000000, 2.0000000000
294, 28.0000000000, 4.0000000000, 2.0000000000
295, 30.0000000000, 4.0000000000, 2.0000000000
296, 32.0000000000, 4.0000000000, 2.0000000000
297, 34.0000000000, 4.0000000000, 2.0000000000
298, 36.0000000000, 4.0000000000, 2.0000000000
299, 38.0000000000, 4.0000000000, 2.0000000000
300, 40.0000000000, 4.0000000000, 2.0000000000
301, 42.0000000000, 4.0000000000, 2.0000000000
302, 44.0000000000, 4.0000000000, 2.0000000000
303, 46.0000000000, 4.0000000000, 2.0000000000
304, 48.0000000000, 4.0000000000, 2.0000000000
305, 50.0000000000, 4.0000000000, 2.0000000000
306, 52.0000000000, 4.0000000000, 2.0000000000
307, 54.0000000000, 4.0000000000, 2.0000000000
308, 56.0000000000, 4.0000000000, 2.0000000000
309, 58.0000000000, 4.0000000000, 2.0000000000
310, 60.0000000000, 4.0000000000, 2.0000000000
311, 0.0000000000, 0.0000000000, 4.0000000000
312, 2.0000000000, 0.0000000000, 4.0000000000
313, 4.0000000000, 0.0000000000, 4.0000000000
314, 6.0000000000, 0.0000000000, 4.0000000000
315, 8.0000000000, 0.0000000000, 4.0000000000
316, 10.0000000000, 0.0000000000, 4.0000000000
317, 12.0000000000, 0.0000000000, 4.0000000000
318, 14.0000000000, 0.0000000000, 4.0000000000
319, 16.0000000000, 0.0000000000, 4.0000000000
320, 18.0000000000, 0.0000000000, 4.0000000000
321, 20.0000000000, 0.0000000000, 4.0000000000
322, 22.0000000000, 0.0000000000, 4.0000000000
323, 24.0000000000, 0.0000000000, 4.0000000000
324, 26.0000000000, 0.0000000000, 4.0000000000
325, 28.0000000000, 0.0000000000, 4.0000000000
326, 30.0000000000, 0.0000000000, 4.0000000000
327, 32.0000000000, 0.0000000000, 4.0000000000
328, 34.0000000000, 0.0000000000, 4.0000000000
329, 36.0000000000, 0.0000000000, 4.0000000000
330, 38.0000000000, 0.0000000000, 4.0000000000
331, 40.0000000000, 0.0000000000, 4.0000000000
332, 42.0000000000, 0.0000000000, 4.0000000000
333, 44.0000000000, 0.0000000000, 4.0000000000
334, 46.0000000000, 0.0000000000, 4.0000000000
335, 48.0000000000, 0.0000000000, 4.0000000000
336, 50.0000000000, 0.0000000000, 4.0000000000
337, 52.0000000000, 0.0000000000, 4.0000000000
338, 54.0000000000, 0.0000000000, 4.0000000000
339, 56.0000000000, 0.0000000000, 4.0000000000
340, 58.0000000000, 0.0000000000, 4.0000000000
341, 60.0000000000, 0.0000000000, 4.0000000000
342, 0.0000000000, 1.0000000000, 4.0000000000
343, 2.0000000000, 1.0000000000, 4.0000000000
344, 4.0000000000, 1.0000000000, 4.0000000000
345, 6.0000000000, 1.0000000000, 4.0000000000
346, 8.0000000000, 1.0000000000, 4.0000000000
347, 10.0000000000, 1.0000000000, 4.0000000000
348, 12.0000000000, 1.0000000000, 4.0000000000
349, 14.0000000000, 1.0000000000, 4.0000000000
350, 16.0000000000, 1.0000000000, 4.0000000000
351, 18.0000000000, 1.0000000000, 4.0000000000
352, 20.0000000000, 1.0000000000, 4.0000000000
353, 22.0000000000, 1.0000000000, 4.0000000000
354, 24.0000000000, 1.0000000000, 4.0000000000
355, 26.0000000000, 1.0000000000, 4.0000000000
356, 28.0000000000, 1.0000000000, 4.0000000000
357, 30.0000000000, 1.0000000000, 4.0000000000
358, 32.0000000000, 1.0000000000, 4.0000000000
359, 34.0000000000, 1.0000000000, 4.0000000000
360, 36.0000000000, 1.0000000000, 4.0000000000
361, 38.0000000000, 1.0000000000, 4.0000000000
362, 40.0000000000, 1.0000000000, 4.0000000000
363, 42.0000000000, 1.0000000000, 4.0000000000
364, 44.0000000000, 1.0000000000, 4.0000000000
365, 46.0000000000, 1.0000000000, 4.0000000000
366, 48.0000000000, 1.0000000000, 4.0000000000
367, 50.0000000000, 1.0000000000, 4.0000000000
368, 52.0000000000, 1.0000000000, 4.0000000000
369, 54.0000000000, 1.0000000000, 4.0000000000
370, 56.0000000000, 1.0000000000, 4.0000000000
371, 58.0000000000, 1.0000000000, 4.0000000000
372, 60.0000000000, 1.0000000000, 4.0000000000
373, 0.0000000000, 2.0000000000, 4.0000000000
374, 2.0000000000, 2.0000000000, 4.0000000000
375, 4.0000000000, 2.0000000000, 4.0000000000
376, 6.0000000000, 2.0000000000, 4.0000000000
377, 8.0000000000, 2.0000000000, 4.0000000000
378, 10.0000000000, 2.0000000000, 4.0000000000
379, 12.0000000000, 2.0000000000, 4.0000000000
380, 14.0000000000, 2.0000000000, 4.0000000000
381, 16.0000000000, 2.0000000000, 4.0000000000
382, 18.0000000000, 2.0000000000, 4.0000000000
383, 20.0000000000, 2.0000000000, 4.0000000000
384, 22.0000000000, 2.0000000000, 4.0000000000
385, 24.0000000000, 2.0000000000, 4.0000000000
386, 26.0000000000, 2.0000000000, 4.0000000000
387, 28.0000000000, 2.0000000000, 4.0000000000
388, 30.0000000000, 2.0000000000, 4.0000000000
389, 32.0000000000, 2.0000000000, 4.0000000000
390, 34.0000000000, 2.0000000000, 4.0000000000
391, 36.0000000000, 2.0000000000, 4.0000000000
392, 38.0000000000, 2.0000000000, 4.0000000000
393, 40.0000000000, 2.0000000000, 4.0000000000
394, 42.0000000000, 2.0000000000, 4.0000000000
395, 44.0000000000, 2.0000000000, 4.0000000000
396, 46.0000000000, 2.0000000000, 4.0000000000
397, 48.0000000000, 2.0000000000, 4.0000000000
398, 50.0000000000, 2.0000000000, 4.0000000000
399, 52.0000000000, 2.0000000000, 4.0000000000
400, 54.0000000000, 2.0000000000, 4.0000000000
401, 56.0000000000, 2.0000000000, 4.0000000000
402, 58.0000000000, 2.0000000000, 4.0000000000
403, 60.0000000000, 2.0000000000, 4.0000000000
404, 0.0000000000, 3.0000000000, 4.0000000000
405, 2.0000000000, 3.0000000000, 4.0000000000
406, 4.0000000000, 3.0000000000, 4.0000000000
407, 6.0000000000, 3.0000000000, 4.0000000000
408, 8.0000000000, 3.0000000000, 4.0000000000
409, 10.0000000000, 3.0000000000, 4.0000000000
410, 12.0000000000, 3.0000000000, 4.0000000000
411, 14.0000000000, 3.0000000000, 4.0000000000
412, 16.0000000000, 3.0000000000, 4.0000000000
413, 18.0000000000, 3.0000000000, 4.0000000000
414, 20.0000000000, 3.0000000000, 4.0000000000
415, 22.0000000000, 3.0000000000, 4.0000000000
416, 24.0000000000, 3.0000000000, 4.0000000000
417, 26.0000000000, 3.0000000000, 4.0000000000
418, 28.0000000000, 3.0000000000, 4.0000000000
419, 30.0000000000, 3.0000000000, 4.0000000000
420, 32.0000000000, 3.0000000000, 4.0000000000
421, 34.0000000000, 3.0000000000, 4.0000000000
422, 36.0000000000, 3.0000000000, 4.0000000000
423, 38.0000000000, 3.0000000000, 4.0000000000
424, 40.0000000000, 3.0000000000, 4.0000000000
425, 42.0000000000, 3.0000000000, 4.0000000000
426, 44.0000000000, 3.0000000000, 4.0000000000
427, 46.0000000000, 3.0000000000, 4.0000000000
428, 48.0000000000, 3.0000000000, 4.0000000000
429, 50.0000000000, 3.0000000000, 4.0000000000
430, 52.0000000000, 3.0000000000, 4.0000000000
431, 54.0000000000, 3.0000000000, 4.0000000000
432, 56.0000000000, 3.0000000000, 4.0000000000
433, 58.0000000000, 3.0000000000, 4.0000000000
434, 60.0000000000, 3.0000000000, 4.0000000000
435, 0.0000000000, 4.0000000000, 4.0000000000
436, 2.0000000000, 4.0000000000, 4.0000000000
437, 4.0000000000, 4.0000000000, 4.0000000000
438, 6.0000000000, 4.0000000000, 4.0000000000
439, 8.0000000000, 4.0000000000, 4.0000000000
440, 10.0000000000, 4.0000000000, 4.0000000000
441, 12.0000000000, 4.0000000000, 4.0000000000
442, 14.0000000000, 4.0000000000, 4.0000000000
443, 16.0000000000, 4.0000000000, 4.0000000000
444, 18.0000000000, 4.0000000000, 4.0000000000
445, 20.0000000000, 4.0000000000, 4.0000000000
446, 22.0000000000, 4.0000000000, 4.0000000000
447, 24.0000000000, 4.0000000000, 4.0000000000
448, 26.0000000000, 4.0000000000, 4.0000000000
449, 28.0000000000, 4.0000000000, 4.0000000000
450, 30.0000000000, 4.0000000000, 4.0000000000
451, 32.0000000000, 4.0000000000, 4.0000000000
452, 34.0000000000, 4.0000000000, 4.0000000000
453, 36.0000000000, 4.0000000000, 4.0000000000
454, 38.0000000000, 4.0000000000, 4.0000000000
455, 40.0000000000, 4.0000000000, 4.0000000000
456, 42.0000000000, 4.0000000000, 4.0000000000
457, 44.0000000000, 4.0000000000, 4.0000000000
458, 46.0000000000, 4.0000000000, 4.0000000000
459, 48.0000000000, 4.0000000000, 4.0000000000
460, 50.0000000000, 4.0000000000, 4.0000000000
461, 52.0000000000, 4.0000000000, 4.0000000000
462, 54.0000000000, 4.0000000000, 4.0000000000
463, 56.0000000000, 4.0000000000, 4.0000000000
464, 58.0000000000, 4.0000000000, 4.0000000000
465, 60.0000000000, 4.0000000000, 4.0000000000
466, 0.0000000000, 2.0000000000, 0.0000000000
467, 2.0000000000, 2.0000000000, 0.0000000000
468, 4.0000000000, 2.0000000000, 0.0000000000
469, 6.0000000000, 2.0000000000, 0.0000000000
470, 8.0000000000, 2.0000000000, 0.0000000000
471, 10.0000000000, 2.0000000000, 0.0000000000
472, 12.0000000000, 2.0000000000, 0.0000000000
473, 14.0000000000, 2.0000000000, 0.0000000000
474, 16.0000000000, 2.0000000000, 0.0000000000
475, 18.0000000000, 2.0000000000, 0.0000000000
476, 20.0000000000, 2.0000000000, 0.0000000000
477, 22.0000000000, 2.0000000000, 0.0000000000
478, 24.0000000000, 2.0000000000, 0.0000000000
479, 26.0000000000, 2.0000000000, 0.0000000000
480, 28.0000000000, 2.0000000000, 0.0000000000
481, 30.0000000000, 2.0000000000, 0.0000000000
482, 32.0000000000, 2.0000000000, 0.0000000000
483, 34.0000000000, 2.0000000000, 0.0000000000
484, 36.0000000000, 2.0000000000, 0.0000000000
485, 38.0000000000, 2.0000000000, 0.0000000000
486, 40.0000000000, 2.0000000000, 0.0000000000
487, 42.0000000000, 2.0000000000, 0.0000000000
488, 44.0000000000, 2.0000000000, 0.0000000000
489, 46.0000000000, 2.0000000000, 0.0000000000
490, 48.0000000000, 2.0000000000, 0.0000000000
491, 50.0000000000, 2.0000000000, 0.0000000000
492, 52.0000000000, 2.0000000000, 0.0000000000
493, 54.0000000000, 2.0000000000, 0.0000000000
494, 56.0000000000, 2.0000000000, 0.0000000000
495, 58.0000000000, 2.0000000000, 0.0000000000
496, 60.0000000000, 2.0000000000, 0.0000000000
497, 0.0000000000, 2.0000000000, 2.0000000000
498, 2.0000000000, 2.0000000000, 2.0000000000
499, 4.0000000000, 2.0000000000, 2.0000000000
500, 6.0000000000, 2.0000000000, 2.0000000000
501, 8.0000000000, 2.0000000000, 2.0000000000
502, 10.0000000000, 2.0000000000, 2.0000000000
503, 12.0000000000, 2.0000000000, 2.0000000000
504, 14.0000000000, 2.0000000000, 2.0000000000
505, 16.0000000000, 2.0000000000, 2.0000000000
506, 18.0000000000, 2.0000000000, 2.0000000000
507, 20.0000000000, 2.0000000000, 2.0000000000
508, 22.0000000000, 2.0000000000, 2.0000000000
509, 24.0000000000, 2.0000000000, 2.0000000000
510, 26.0000000000, 2.0000000000, 2.0000000000
511, 28.0000000000, 2.0000000000, 2.0000000000
512, 30.0000000000, 2.0000000000, 2.0000000000
513, 32.0000000000, 2.0000000000, 2.0000000000
514, 34.0000000000, 2.0000000000, 2.0000000000
515, 36.0000000000, 2.0000000000, 2.0000000000
516, 38.0000000000, 2.0000000000, 2.0000000000
517, 40.0000000000, 2.0000000000, 2.0000000000
518, 42.0000000000, 2.0000000000, 2.0000000000
519, 44.0000000000, 2.0000000000, 2.0000000000
520, 46.0000000000, 2.0000000000, 2.0000000000
521, 48.0000000000, 2.0000000000, 2.0000000000
522, 50.0000000000, 2.0000000000, 2.0000000000
523, 52.0000000000, 2.0000000000, 2.0000000000
524, 54.0000000000, 2.0000000000, 2.0000000000
525, 56.0000000000, 2.0000000000, 2.0000000000
526, 58.0000000000, 2.0000000000, 2.0000000000
527, 60.0000000000, 2.0000000000, 2.0000000000
528, 0.0000000000, 2.0000000000, 4.0000000000
529, 2.0000000000, 2.0000000000, 4.0000000000
530, 4.0000000000, 2.0000000000, 4.0000000000
531, 6.0000000000, 2.0000000000, 4.0000000000
532, 8.0000000000, 2.0000000000, 4.0000000000
533, 10.0000000000, 2.0000000000, 4.0000000000
534, 12.0000000000, 2.0000000000, 4.0000000000
535, 14.0000000000, 2.0000000000, 4.0000000000
536, 16.0000000000, 2.0000000000, 4.0000000000
537, 18.0000000000, 2.0000000000, 4.0000000000
538, 20.0000000000, 2.0000000000, 4.0000000000
539, 22.0000000000, 2.0000000000, 4.0000000000
540, 24.0000000000, 2.0000000000, 4.0000000000
541, 26.0000000000, 2.0000000000, 4.0000000000
542, 28.0000000000, 2.0000000000, 4.0000000000
543, 30.0000000000, 2.0000000000, 4.0000000000
544, 32.0000000000, 2.0000000000, 4.0000000000
545, 34.0000000000, 2.0000000000, 4.0000000000
546, 36.0000000000, 2.0000000000, 4.0000000000
547, 38.0000000000, 2.0000000000, 4.0000000000
548, 40.0000000000, 2.0000000000, 4.0000000000
549, 42.0000000000, 2.0000000000, 4.0000000000
550, 44.0000000000, 2.0000000000, 4.0000000000
551, 46.0000000000, 2.0000000000, 4.0000000000
552, 48.0000000000, 2.0000000000, 4.0000000000
553, 50.0000000000, 2.0000000000, 4.0000000000
554, 52.0000000000, 2.0000000000, 4.0000000000
555, 54.0000000000, 2.0000000000, 4.0000000000
556, 56.0000000000, 2.0000000000, 4.0000000000
557, 58.0000000000, 2.0000000000, 4.0000000000
558, 60.0000000000, 2.0000000000, 4.0000000000
**
*ELEMENT, TYPE=C3D8, ELSET=ARMS
1, 1, 2, 33, 32, 156, 157, 188, 187
2, 2, 3, 34, 33, 157, 158, 189, 188
3, 3, 4, 35, 34, 158, 159, 190, 189
4, 4, 5, 36, 35, 159, 160, 191, 190
5, 5, 6, 37, 36, 160, 161, 192, 191
6, 6, 7, 38, 37, 161, 162, 193, 192
7, 7, 8, 39, 38, 162, 163, 194, 193
8, 8, 9, 40, 39, 163, 164, 195, 194
9, 9, 10, 41, 40, 164, 165, 196, 195
10, 10, 11, 42, 41, 165, 166, 197, 196
11, 11, 12, 43, 42, 166, 167, 198, 197
12, 12, 13, 44, 43, 167, 168, 199, 198
13, 13, 14, 45, 44, 168, 169, 200, 199
14, 14, 15, 46, 45, 169, 170, 201, 200
15, 15, 16, 47, 46, 170, 171, 202, 201
16, 16, 17, 48, 47, 171, 172, 203, 202
17, 17, 18, 49, 48, 172, 173, 204, 203
18, 18, 19, 50, 49, 173, 174, 205, 204
19, 19, 20, 51, 50, 174, 175, 206, 205
20, 20, 21, 52, 51, 175, 176, 207, 206
21, 21, 22, 53, 52, 176, 177, 208, 207
22, 22, 23, 54, 53, 177, 178, 209, 208
23, 23, 24, 55, 54, 178, 179, 210, 209
24, 24, 25, 56, 55, 179, 180, 211, 210
25, 25, 26, 57, 56, 180, 181, 212, 211
26, 26, 27, 58, 57, 181, 182, 213, 212
27, 27, 28, 59, 58, 182, 183, 214, 213
28, 28, 29, 60, 59, 183, 184, 215, 214
29, 29, 30, 61, 60, 184, 185, 216, 215
30, 30, 31, 62, 61, 185, 186, 217, 216
31, 32, 33, 64, 63, 187, 188, 219, 218
32, 33, 34, 65, 64, 188, 189, 220, 219
33, 34, 35, 66, 65, 189, 190, 221, 220
34, 35, 36, 67, 66, 190, 191, 222, 221
35, 36, 37, 68, 67, 191, 192, 223, 222
36, 37, 38, 69, 68, 192, 193, 224, 223
37, 38, 39, 70, 69, 193, 194, 225, 224
38, 39, 40, 71, 70, 194, 195, 226, 225
39, 40, 41, 72, 71, 195, 196, 227, 226
40, 41, 42, 73, 72, 196, 197, 228, 227
41, 42, 43, 74, 73, 197, 198, 229, 228
42, 43, 44, 75, 74, 198, 199, 230, 229
43, 44, 45, 76, 75, 199, 200, 231, 230
44, 45, 46, 77, 76, 200, 201, 232, 231
45, 46, 47, 78, 77, 201, 202, 233, 232
46, 47, 48, 79, 78, 202, 203, 234, 233
47, 48, 49, 80, 79, 203, 204, 235, 234
48, 49, 50, 81, 80, 204, 205, 236, 235
49, 50, 51, 82, 81, 205, 206, 237, 236
50, 51, 52, 83, 82, 206, 207, 238, 237
51, 52, 53, 84, 83, 207, 208, 239, 238
52, 53, 54, 85, 84, 208, 209, 240, 239
53, 54, 55, 86, 85, 209, 210, 241, 240
54, 55, 56, 87, 86, 210, 211, 242, 241
55, 56, 57, 88, 87, 211, 212, 243, 242
56, 57, 58, 89, 88, 212, 213, 244, 243
57, 58, 59, 90, 89, 213, 214, 245, 244
58, 59, 60, 91, 90, 214, 215, 246, 245
59, 60, 61, 92, 91, 215, 216, 247, 246
60, 61, 62, 93, 92, 216, 217, 248, 247
61, 466, 467, 95, 94, 497, 498, 250, 249
62, 467, 468, 96, 95, 498, 499, 251, 250
63, 468, 469, 97, 96, 499, 500, 252, 251
64, 469, 470, 98, 97, 500, 501, 253, 252
65, 470, 471, 99, 98, 501, 502, 254, 253
66, 471, 472, 100, 99, 502, 503, 255, 254
67, 472, 473, 101, 100, 503, 504, 256, 255
68, 473, 474, 102, 101, 504, 505, 257, 256
69, 474, 475, 103, 102, 505, 506, 258, 257
70, 475, 476, 104, 103, 506, 507, 259, 258
71, 476, 477, 105, 104, 507, 508, 260, 259
72, 477, 478, 106, 105, 508, 509, 261, 260
73, 478, 479, 107, 106, 509, 510, 262, 261
74, 479, 480, 108, 107, 510, 511, 263, 262
75, 480, 481, 109, 108, 511, 512, 264, 263
76, 481, 482, 110, 109, 512, 513, 265, 264
77, 482, 483, 111, 110, 513, 514, 266, 265
78, 483, 484, 112, 111, 514, 515, 267, 266
79, 484, 485, 113, 112, 515, 516, 268, 267
80, 485, 486, 114, 113, 516, 517, 269, 268
81, 486, 487, 115, 114, 517, 518, 270, 269
82, 487, 488, 116, 115, 518, 519, 271, 270
83, 488, 489, 117, 116, 519, 520, 272, 271
84, 489, 490, 118, 117, 520, 521, 273, 272
85, 490, 491, 119, 118, 521, 522, 274, 273
86, 491, 492, 120, 119, 522, 523, 275, 274
87, 492, 493, 121, 120, 523, 524, 276, 275
88, 493, 494, 122, 121, 524, 525, 277, 276
89, 494, 495, 123, 122, 525, 526, 278, 277
90, 495, 496, 124, 123, 526, 527, 279, 278
91, 94, 95, 126, 125, 249, 250, 281, 280
92, 95, 96, 127, 126, 250, 251, 282, 281
93, 96, 97, 128, 127, 251, 252, 283, 282
94, 97, 98, 129, 128, 252, 253, 284, 283
95, 98, 99, 130, 129, 253, 254, 285, 284
96, 99, 100, 131, 130, 254, 255, 286, 285
97, 100, 101, 132, 131, 255, 256, 287, 286
98, 101, 102, 133, 132, 256, 257, 288, 287
99, 102, 103, 134, 133, 257, 258, 289, 288
100, 103, 104, 135, 134, 258, 259, 290, 289
101, 104, 105, 136, 135, 259, 260, 291, 290
102, 105, 106, 137, 136, 260, 261, 292, 291
103, 106, 107, 138, 137, 261, 262, 293, 292
104, 107, 108, 139, 138, 262, 263, 294, 293
105, 108, 109, 140, 139, 263, 264, 295, 294
106, 109, 110, 141, 140, 264, 265, 296, 295
107, 110, 111, 142, 141, 265, 266, 297, 296
108, 111, 112, 143, 142, 266, 267, 298, 297
109, 112, 113, 144, 143, 267, 268, 299, 298
110, 113, 114, 145, 144, 268, 269, 300, 299
111, 114, 115, 146, 145, 269, 270, 301, 300
112, 115, 116, 147, 146, 270, 271, 302, 301
113, 116, 117, 148, 147, 271, 272, 303, 302
114, 117, 118, 149, 148, 272, 273, 304, 303
115, 118, 119, 150, 149, 273, 274, 305, 304
116, 119, 120, 151, 150, 274, 275, 306, 305
117, 120, 121, 152, 151, 275, 276, 307, 306
118, 121, 122, 153, 152, 276, 277, 308, 307
119, 122, 123, 154, 153, 277, 278, 309, 308
120, 123, 124, 155, 154, 278, 279, 310, 309
121, 156, 157, 188, 187, 311, 312, 343, 342
122, 157, 158, 189, 188, 312, 313, 344, 343
123, 158, 159, 190, 189, 313, 314, 345, 344
124, 159, 160, 191, 190, 314, 315, 346, 345
125, 160, 161, 192, 191, 315, 316, 347, 346
126, 161, 162, 193, 192, 316, 317, 348, 347
127, 162, 163, 194, 193, 317, 318, 349, 348
128, 163, 164, 195, 194, 318, 319, 350, 349
129, 164, 165, 196, 195, 319, 320, 351, 350
130, 165, 166, 197, 196, 320, 321, 352, 351
131, 166, 167, 198, 197, 321, 322, 353, 352
132, 167, 168, 199, 198, 322, 323, 354, 353
133, 168, 169, 200, 199, 323, 324, 355, 354
134, 169, 170, 201, 200, 324, 325, 356, 355
135, 170, 171, 202, 201, 325, 326, 357, 356
136, 171, 172, 203, 202, 326, 327, 358, 357
137, 172, 173, 204, 203, 327, 328, 359, 358
138, 173, 174, 205, 204, 328, 329, 360, 359
139, 174, 175, 206, 205, 329, 330, 361, 360
140, 175, 176, 207, 206, 330, 331, 362, 361
141, 176, 177, 208, 207, 331, 332, 363, 362
142, 177, 178, 209, 208, 332, 333, 364, 363
143, 178, 179, 210, 209, 333, 334, 365, 364
144, 179, 180, 211, 210, 334, 335, 366, 365
145, 180, 181, 212, 211, 335, 336, 367, 366
146, 181, 182, 213, 212, 336, 337, 368, 367
147, 182, 183, 214, 213, 337, 338, 369, 368
148, 183, 184, 215, 214, 338, 339, 370, 369
149, 184, 185, 216, 215, 339, 340, 371, 370
150, 185, 186, 217, 216, 340, 341, 372, 371
151, 187, 188, 219, 218, 342, 343, 374, 373
152, 188, 189, 220, 219, 343, 344, 375, 374
153, 189, 190, 221, 220, 344, 345, 376, 375
154, 190, 191, 222, 221, 345, 346, 377, 376
155, 191, 192, 223, 222, 346, 347, 378, 377
156, 192, 193, 224, 223, 347, 348, 379, 378
157, 193, 194, 225, 224, 348, 349, 380, 379
158, 194, 195, 226, 225, 349, 350, 381, 380
159, 195, 196, 227, 226, 350, 351, 382, 381
160, 196, 197, 228, 227, 351, 352, 383, 382
161, 197, 198, 229, 228, 352, 353, 384, 383
162, 198, 199, 230, 229, 353, 354, 385, 384
163, 199, 200, 231, 230, 354, 355, 386, 385
164, 200, 201, 232, 231, 355, 356, 387, 386
165, 201, 202, 233, 232, 356, 357, 388, 387
166, 202, 203, 234, 233, 357, 358, 389, 388
167, 203, 204, 235, 234, 358, 359, 390, 389
168, 204, 205, 236, 235, 359, 360, 391, 390
169, 205, 206, 237, 236, 360, 361, 392, 391
170, 206, 207, 238, 237, 361, 362, 393, 392
171, 207, 208, 239, 238, 362, 363, 394, 393
172, 208, 209, 240, 239, 363, 364, 395, 394
173, 209, 210, 241, 240, 364, 365, 396, 395
174, 210, 211, 242, 241, 365, 366, 397, 396
175, 211, 212, 243, 242, 366, 367, 398, 397
176, 212, 213, 244, 243, 367, 368, 399, 398
177, 213, 214, 245, 244, 368, 369, 400, 399
178, 214, 215, 246, 245, 369, 370, 401, 400
179, 215, 216, 247, 246, 370, 371, 402, 401
180, 216, 217, 248, 247, 371, 372, 403, 402
181, 497, 498, 250, 249, 528, 529, 405, 404
182, 498, 499, 251, 250, 529, 530, 406, 405
183, 499, 500, 252, 251, 530, 531, 407, 406
184, 500, 501, 253, 252, 531, 532, 408, 407
185, 501, 502, 254, 253, 532, 533, 409, 408
186, 502, 503, 255, 254, 533, 534, 410, 409
187, 503, 504, 256, 255, 534, 535, 411, 410
188, 504, 505, 257, 256, 535, 536, 412, 411
189, 505, 506, 258, 257, 536, 537, 413, 412
190, 506, 507, 259, 258, 537, 538, 414, 413
191, 507, 508, 260, 259, 538, 539, 415, 414
192, 508, 509, 261, 260, 539, 540, 416, 415
193, 509, 510, 262, 261, 540, 541, 417, 416
194, 510, 511, 263, 262, 541, 542, 418, 417
195, 511, 512, 264, 263, 542, 543, 419, 418
196, 512, 513, 265, 264, 543, 544, 420, 419
197, 513, 514, 266, 265, 544, 545, 421, 420
198, 514, 515, 267, 266, 545, 546, 422, 421
199, 515, 516, 268, 267, 546, 547, 423, 422
200, 516, 517, 269, 268, 547, 548, 424, 423
201, 517, 518, 270, 269, 548, 549, 425, 424
202, 518, 519, 271, 270, 549, 550, 426, 425
203, 519, 520, 272, 271, 550, 551, 427, 426
204, 520, 521, 273, 272, 551, 552, 428, 427
205, 521, 522, 274, 273, 552, 553, 429, 428
206, 522, 523, 275, 274, 553, 554, 430, 429
207, 523, 524, 276, 275, 554, 555, 431, 430
208, 524, 525, 277, 276, 555, 556, 432, 431
209, 525, 526, 278, 277, 556, 557, 433, 432
210, 526, 527, 279, 278, 557, 558, 434, 433
211, 249, 250, 281, 280, 404, 405, 436, 435
212, 250, 251, 282, 281, 405, 406, 437, 436
213, 251, 252, 283, 282, 406, 407, 438, 437
214, 252, 253, 284, 283, 407, 408, 439, 438
215, 253, 254, 285, 284, 408, 409, 440, 439
216, 254, 255, 286, 285, 409, 410, 441, 440
217, 255, 256, 287, 286, 410, 411, 442, 441
218, 256, 257, 288, 287, 411, 412, 443, 442
219, 257, 258, 289, 288, 412, 413, 444, 443
220, 258, 259, 290, 289, 413, 414, 445, 444
221, 259, 260, 291, 290, 414, 415, 446, 445
222, 260, 261, 292, 291, 415, 416, 447, 446
223, 261, 262, 293, 292, 416, 417, 448, 447
224, 262, 263, 294, 293, 417, 418, 449, 448
225, 263, 264, 295, 294, 418, 419, 450, 449
226, 264, 265, 296, 295, 419, 420, 451, 450
227, 265, 266, 297, 296, 420, 421, 452, 451
228, 266, 267, 298, 297, 421, 422, 453, 452
229, 267, 268, 299, 298, 422, 423, 454, 453
230, 268, 269, 300, 299, 423, 424, 455, 454
231, 269, 270, 301, 300, 424, 425, 456, 455
232, 270, 271, 302, 301, 425, 426, 457, 456
233, 271, 272, 303, 302, 426, 427, 458, 457
234, 272, 273, 304, 303, 427, 428, 459, 458
235, 273, 274, 305, 304, 428, 429, 460, 459
236, 274, 275, 306, 305, 429, 430, 461, 460
237, 275, 276, 307, 306, 430, 431, 462, 461
238, 276, 277, 308, 307, 431, 432, 463, 462
239, 277, 278, 309, 308, 432, 433, 464, 463
240, 278, 279, 310, 309, 433, 434, 465, 464
**
*ELEMENT, TYPE=COH3D8, ELSET=COHESIVE
241, 73, 228, 229, 74, 476, 507, 508, 477
242, 74, 229, 230, 75, 477, 508, 509, 478
243, 75, 230, 231, 76, 478, 509, 510, 479
244, 76, 231, 232, 77, 479, 510, 511, 480
245, 77, 232, 233, 78, 480, 511, 512, 481
246, 78, 233, 234, 79, 481, 512, 513, 482
247, 79, 234, 235, 80, 482, 513, 514, 483
248, 80, 235, 236, 81, 483, 514, 515, 484
249, 81, 236, 237, 82, 484, 515, 516, 485
250, 82, 237, 238, 83, 485, 516, 517, 486
251, 83, 238, 239, 84, 486, 517, 518, 487
252, 84, 239, 240, 85, 487, 518, 519, 488
253, 85, 240, 241, 86, 488, 519, 520, 489
254, 86, 241, 242, 87, 489, 520, 521, 490
255, 87, 242, 243, 88, 490, 521, 522, 491
256, 88, 243, 244, 89, 491, 522, 523, 492
257, 89, 244, 245, 90, 492, 523, 524, 493
258, 90, 245, 246, 91, 493, 524, 525, 494
259, 91, 246, 247, 92, 494, 525, 526, 495
260, 92, 247, 248, 93, 495, 526, 527, 496
261, 228, 383, 384, 229, 507, 538, 539, 508
262, 229, 384, 385, 230, 508, 539, 540, 509
263, 230, 385, 386, 231, 509, 540, 541, 510
264, 231, 386, 387, 232, 510, 541, 542, 511
265, 232, 387, 388, 233, 511, 542, 543, 512
266, 233, 388, 389, 234, 512, 543, 544, 513
267, 234, 389, 390, 235, 513, 544, 545, 514
268, 235, 390, 391, 236, 514, 545, 546, 515
269, 236, 391, 392, 237, 515, 546, 547, 516
270, 237, 392, 393, 238, 516, 547, 548, 517
271, 238, 393, 394, 239, 517, 548, 549, 518
272, 239, 394, 395, 240, 518, 549, 550, 519
273, 240, 395, 396, 241, 519, 550, 551, 520
274, 241, 396, 397, 242, 520, 551, 552, 521
275, 242, 397, 398, 243, 521, 552, 553, 522
276, 243, 398, 399, 244, 522, 553, 554, 523
277, 244, 399, 400, 245, 523, 554, 555, 524
278, 245, 400, 401, 246, 524, 555, 556, 525
279, 246, 401, 402, 247, 525, 556, 557, 526
280, 247, 402, 403, 248, 526, 557, 558, 527
**
*SOLID SECTION, ELSET=ARMS, MATERIAL=ARM_MAT
,
*COHESIVE SECTION, ELSET=COHESIVE, MATERIAL=COH_MAT, RESPONSE=TRACTION SEPARATION, THICKNESS=SPECIFIED
1.0
**
*MATERIAL, NAME=ARM_MAT
*ELASTIC
70000.0, 0.3
**
*MATERIAL, NAME=COH_MAT
*ELASTIC, TYPE=TRACTION
10000.0, 10000.0, 10000.0
*DAMAGE INITIATION, CRITERION=QUADS
30.0, 30.0, 30.0
*DAMAGE EVOLUTION, TYPE=ENERGY, MIXED MODE BEHAVIOR=BK, SOFTENING=LINEAR, POWER=1.0
0.5, 0.5, 0.5
**
*NSET, NSET=RIGHT_FACE
31, 62, 93, 124, 155, 186, 217, 248, 279, 310, 341, 372
403, 434, 465, 496, 527, 558
*NSET, NSET=TIP_TOP
125, 280, 435
*NSET, NSET=TIP_BOTTOM
1, 156, 311
**
*STEP, NAME=OPEN, NLGEOM=NO, INC=2000
*STATIC
0.010000, 2.500000, 1e-10, 0.100000
*BOUNDARY
RIGHT_FACE, 1, 3, 0.0
TIP_TOP, 2, 2, 1.250000
TIP_BOTTOM, 2, 2, -1.250000
*OUTPUT, FIELD, FREQUENCY=5
*NODE OUTPUT
U, RF
*ELEMENT OUTPUT, ELSET=COHESIVE
SDEG
*OUTPUT, HISTORY, FREQUENCY=1
*NODE OUTPUT, NSET=TIP_TOP
U2, RF2
*NODE OUTPUT, NSET=TIP_BOTTOM
U2, RF2
*END STEP
