*HEADING
DCB mode-I reference model, mesh generated by diffcohesive/mesh/specimens.py
**
*NODE
1, 0.0000000000, 0.0000000000
2, 0.5000000000, 0.0000000000
3, 1.0000000000, 0.0000000000
4, 1.5000000000, 0.0000000000
5, 2.0000000000, 0.0000000000
6, 2.5000000000, 0.0000000000
7, 3.0000000000, 0.0000000000
8, 3.5000000000, 0.0000000000
9, 4.0000000000, 0.0000000000
10, 4.5000000000, 0.0000000000
11, 5.0000000000, 0.0000000000
12, 5.5000000000, 0.0000000000
13, 6.0000000000, 0.0000000000
14, 6.5000000000, 0.0000000000
15, 7.0000000000, 0.0000000000
16, 7.5000000000, 0.0000000000
17, 8.0000000000, 0.0000000000
18, 8.5000000000, 0.0000000000
19, 9.0000000000, 0.0000000000
20, 9.5000000000, 0.0000000000
21, 10.0000000000, 0.0000000000
22, 10.5000000000, 0.0000000000
23, 11.0000000000, 0.0000000000
24, 11.5000000000, 0.0000000000
25, 12.0000000000, 0.0000000000
26, 12.5000000000, 0.0000000000
27, 13.0000000000, 0.0000000000
28, 13.5000000000, 0.0000000000
29, 14.0000000000, 0.0000000000
30, 14.5000000000, 0.0000000000
31, 15.0000000000, 0.0000000000
32, 0.0000000000, 0.2500000000
33, 0.5000000000, 0.2500000000
34, 1.0000000000, 0.2500000000
35, 1.5000000000, 0.2500000000
36, 2.0000000000, 0.2500000000
37, 2.5000000000, 0.2500000000
38, 3.0000000000, 0.2500000000
39, 3.5000000000, 0.2500000000
40, 4.0000000000, 0.2500000000
41, 4.5000000000, 0.2500000000
42, 5.0000000000, 0.2500000000
43, 5.5000000000, 0.2500000000
44, 6.0000000000, 0.2500000000
45, 6.5000000000, 0.2500000000
46, 7.0000000000, 0.2500000000
47, 7.5000000000, 0.2500000000
48, 8.0000000000, 0.2500000000
49, 8.5000000000, 0.2500000000
50, 9.0000000000, 0.2500000000
51, 9.5000000000, 0.2500000000
52, 10.0000000000, 0.2500000000
53, 10.5000000000, 0.2500000000
54, 11.0000000000, 0.2500000000
55, 11.5000000000, 0.2500000000
56, 12.0000000000, 0.2500000000
57, 12.5000000000, 0.2500000000
58, 13.0000000000, 0.2500000000
59, 13.5000000000, 0.2500000000
60, 14.0000000000, 0.2500000000
61, 14.5000000000, 0.2500000000
62, 15.0000000000, 0.2500000000
63, 0.0000000000, 0.5000000000
64, 0.5000000000, 0.5000000000
65, 1.0000000000, 0.5000000000
66, 1.5000000000, 0.5000000000
67, 2.0000000000, 0.5000000000
68, 2.5000000000, 0.5000000000
69, 3.0000000000, 0.5000000000
70, 3.5000000000, 0.5000000000
71, 4.0000000000, 0.5000000000
72, 4.5000000000, 0.5000000000
73, 5.0000000000, 0.5000000000
74, 5.5000000000, 0.5000000000
75, 6.0000000000, 0.5000000000
76, 6.5000000000, 0.5000000000
77, 7.0000000000, 0.5000000000
78, 7.5000000000, 0.5000000000
79, 8.0000000000, 0.5000000000
80, 8.5000000000, 0.5000000000
81, 9.0000000000, 0.5000000000
82, 9.5000000000, 0.5000000000
83, 10.0000000000, 0.5000000000
84, 10.5000000000, 0.5000000000
85, 11.0000000000, 0.5000000000
86, 11.5000000000, 0.5000000000
87, 12.0000000000, 0.5000000000
88, 12.5000000000, 0.5000000000
89, 13.0000000000, 0.5000000000
90, 13.5000000000, 0.5000000000
91, 14.0000000000, 0.5000000000
92, 14.5000000000, 0.5000000000
93, 15.0000000000, 0.5000000000
94, 0.0000000000, 0.7500000000
95, 0.5000000000, 0.7500000000
96, 1.0000000000, 0.7500000000
97, 1.5000000000, 0.7500000000
98, 2.0000000000, 0.7500000000
99, 2.5000000000, 0.7500000000
100, 3.0000000000, 0.7500000000
101, 3.5000000000, 0.7500000000
102, 4.0000000000, 0.7500000000
103, 4.5000000000, 0.7500000000
104, 5.0000000000, 0.7500000000
105, 5.5000000000, 0.7500000000
106, 6.0000000000, 0.7500000000
107, 6.5000000000, 0.7500000000
108, 7.0000000000, 0.7500000000
109, 7.5000000000, 0.7500000000
110, 8.0000000000, 0.7500000000
111, 8.5000000000, 0.7500000000
112, 9.0000000000, 0.7500000000
113, 9.5000000000, 0.7500000000
114, 10.0000000000, 0.7500000000
115, 10.5000000000, 0.7500000000
116, 11.0000000000, 0.7500000000
117, 11.5000000000, 0.7500000000
118, 12.0000000000, 0.7500000000
119, 12.5000000000, 0.7500000000
120, 13.0000000000, 0.7500000000
121, 13.5000000000, 0.7500000000
122, 14.0000000000, 0.7500000000
123, 14.5000000000, 0.7500000000
124, 15.0000000000, 0.7500000000
125, 0.0000000000, 1.0000000000
126, 0.5000000000, 1.0000000000
127, 1.0000000000, 1.0000000000
128, 1.5000000000, 1.0000000000
129, 2.0000000000, 1.0000000000
130, 2.5000000000, 1.0000000000
131, 3.0000000000, 1.0000000000
132, 3.5000000000, 1.0000000000
133, 4.0000000000, 1.0000000000
134, 4.5000000000, 1.0000000000
135, 5.0000000000, 1.0000000000
136, 5.5000000000, 1.0000000000
137, 6.0000000000, 1.0000000000
138, 6.5000000000, 1.0000000000
139, 7.0000000000, 1.0000000000
140, 7.5000000000, 1.0000000000
141, 8.0000000000, 1.0000000000
142, 8.5000000000, 1.0000000000
143, 9.0000000000, 1.0000000000
144, 9.5000000000, 1.0000000000
145, 10.0000000000, 1.0000000000
146, 10.5000000000, 1.0000000000
147, 11.0000000000, 1.0000000000
148, 11.5000000000, 1.0000000000
149, 12.0000000000, 1.0000000000
150, 12.5000000000, 1.0000000000
151, 13.0000000000, 1.0000000000
152, 13.5000000000, 1.0000000000
153, 14.0000000000, 1.0000000000
154, 14.5000000000, 1.0000000000
155, 15.0000000000, 1.0000000000
156, 0.0000000000, 1.2500000000
157, 0.5000000000, 1.2500000000
158, 1.0000000000, 1.2500000000
159, 1.5000000000, 1.2500000000
160, 2.0000000000, 1.2500000000
161, 2.5000000000, 1.2500000000
162, 3.0000000000, 1.2500000000
163, 3.5000000000, 1.2500000000
164, 4.0000000000, 1.2500000000
165, 4.5000000000, 1.2500000000
166, 5.0000000000, 1.2500000000
167, 5.5000000000, 1.2500000000
168, 6.0000000000, 1.2500000000
169, 6.5000000000, 1.2500000000
170, 7.0000000000, 1.2500000000
171, 7.5000000000, 1.2500000000
172, 8.0000000000, 1.2500000000
173, 8.5000000000, 1.2500000000
174, 9.0000000000, 1.2500000000
175, 9.5000000000, 1.2500000000
176, 10.0000000000, 1.2500000000
177, 10.5000000000, 1.2500000000
178, 11.0000000000, 1.2500000000
179, 11.5000000000, 1.2500000000
180, 12.0000000000, 1.2500000000
181, 12.5000000000, 1.2500000000
182, 13.0000000000, 1.2500000000
183, 13.5000000000, 1.2500000000
184, 14.0000000000, 1.2500000000
185, 14.5000000000, 1.2500000000
186, 15.0000000000, 1.2500000000
187, 0.0000000000, 1.5000000000
188, 0.5000000000, 1.5000000000
189, 1.0000000000, 1.5000000000
190, 1.5000000000, 1.5000000000
191, 2.0000000000, 1.5000000000
192, 2.5000000000, 1.5000000000
193, 3.0000000000, 1.5000000000
194, 3.5000000000, 1.5000000000
195, 4.0000000000, 1.5000000000
196, 4.5000000000, 1.5000000000
197, 5.0000000000, 1.5000000000
198, 5.5000000000, 1.5000000000
199, 6.0000000000, 1.5000000000
200, 6.5000000000, 1.5000000000
201, 7.0000000000, 1.5000000000
202, 7.5000000000, 1.5000000000
203, 8.0000000000, 1.5000000000
204, 8.5000000000, 1.5000000000
205, 9.0000000000, 1.5000000000
206, 9.5000000000, 1.5000000000
207, 10.0000000000, 1.5000000000
208, 10.5000000000, 1.5000000000
209, 11.0000000000, 1.5000000000
210, 11.5000000000, 1.5000000000
211, 12.0000000000, 1.5000000000
212, 12.5000000000, 1.5000000000
213, 13.0000000000, 1.5000000000
214, 13.5000000000, 1.5000000000
215, 14.0000000000, 1.5000000000
216, 14.5000000000, 1.5000000000
217, 15.0000000000, 1.5000000000
218, 0.0000000000, 1.7500000000
219, 0.5000000000, 1.7500000000
220, 1.0000000000, 1.7500000000
221, 1.5000000000, 1.7500000000
222, 2.0000000000, 1.7500000000
223, 2.5000000000, 1.7500000000
224, 3.0000000000, 1.7500000000
225, 3.5000000000, 1.7500000000
226, 4.0000000000, 1.7500000000
227, 4.5000000000, 1.7500000000
228, 5.0000000000, 1.7500000000
229, 5.5000000000, 1.7500000000
230, 6.0000000000, 1.7500000000
231, 6.5000000000, 1.7500000000
232, 7.0000000000, 1.7500000000
233, 7.5000000000, 1.7500000000
234, 8.0000000000, 1.7500000000
235, 8.5000000000, 1.7500000000
236, 9.0000000000, 1.7500000000
237, 9.5000000000, 1.7500000000
238, 10.0000000000, 1.7500000000
239, 10.5000000000, 1.7500000000
240, 11.0000000000, 1.7500000000
241, 11.5000000000, 1.7500000000
242, 12.0000000000, 1.7500000000
243, 12.5000000000, 1.7500000000
244, 13.0000000000, 1.7500000000
245, 13.5000000000, 1.7500000000
246, 14.0000000000, 1.7500000000
247, 14.5000000000, 1.7500000000
248, 15.0000000000, 1.7500000000
249, 0.0000000000, 2.0000000000
250, 0.5000000000, 2.0000000000
251, 1.0000000000, 2.0000000000
252, 1.5000000000, 2.0000000000
253, 2.0000000000, 2.0000000000
254, 2.5000000000, 2.0000000000
255, 3.0000000000, 2.0000000000
256, 3.5000000000, 2.0000000000
257, 4.0000000000, 2.0000000000
258, 4.5000000000, 2.0000000000
259, 5.0000000000, 2.0000000000
260, 5.5000000000, 2.0000000000
261, 6.0000000000, 2.0000000000
262, 6.5000000000, 2.0000000000
263, 7.0000000000, 2.0000000000
264, 7.5000000000, 2.0000000000
265, 8.0000000000, 2.0000000000
266, 8.5000000000, 2.0000000000
267, 9.0000000000, 2.0000000000
268, 9.5000000000, 2.0000000000
269, 10.0000000000, 2.0000000000
270, 10.5000000000, 2.0000000000
271, 11.0000000000, 2.0000000000
272, 11.5000000000, 2.0000000000
273, 12.0000000000, 2.0000000000
274, 12.5000000000, 2.0000000000
275, 13.0000000000, 2.0000000000
276, 13.5000000000, 2.0000000000
277, 14.0000000000, 2.0000000000
278, 14.5000000000, 2.0000000000
279, 15.0000000000, 2.0000000000
280, 0.0000000000, 1.0000000000
281, 0.5000000000, 1.0000000000
282, 1.0000000000, 1.0000000000
283, 1.5000000000, 1.0000000000
284, 2.0000000000, 1.0000000000
285, 2.5000000000, 1.0000000000
286, 3.0000000000, 1.0000000000
287, 3.5000000000, 1.0000000000
288, 4.0000000000, 1.0000000000
289, 4.5000000000, 1.0000000000
290, 5.0000000000, 1.0000000000
291, 5.5000000000, 1.0000000000
292, 6.0000000000, 1.0000000000
293, 6.5000000000, 1.0000000000
294, 7.0000000000, 1.0000000000
295, 7.5000000000, 1.0000000000
296, 8.0000000000, 1.0000000000
297, 8.5000000000, 1.0000000000
298, 9.0000000000, 1.0000000000
299, 9.5000000000, 1.0000000000
300, 10.0000000000, 1.0000000000
301, 10.5000000000, 1.0000000000
302, 11.0000000000, 1.0000000000
303, 11.5000000000, 1.0000000000
304, 12.0000000000, 1.0000000000
305, 12.5000000000, 1.0000000000
306, 13.0000000000, 1.0000000000
307, 13.5000000000, 1.0000000000
308, 14.0000000000, 1.0000000000
309, 14.5000000000, 1.0000000000
310, 15.0000000000, 1.0000000000
**
*ELEMENT, TYPE=CPE3, ELSET=ARMS
1, 1, 2, 33
2, 1, 33, 32
3, 2, 3, 34
4, 2, 34, 33
5, 3, 4, 35
6, 3, 35, 34
7, 4, 5, 36
8, 4, 36, 35
9, 5, 6, 37
10, 5, 37, 36
11, 6, 7, 38
12, 6, 38, 37
13, 7, 8, 39
14, 7, 39, 38
15, 8, 9, 40
16, 8, 40, 39
17, 9, 10, 41
18, 9, 41, 40
19, 10, 11, 42
20, 10, 42, 41
21, 11, 12, 43
22, 11, 43, 42
23, 12, 13, 44
24, 12, 44, 43
25, 13, 14, 45
26, 13, 45, 44
27, 14, 15, 46
28, 14, 46, 45
29, 15, 16, 47
30, 15, 47, 46
31, 16, 17, 48
32, 16, 48, 47
33, 17, 18, 49
34, 17, 49, 48
35, 18, 19, 50
36, 18, 50, 49
37, 19, 20, 51
38, 19, 51, 50
39, 20, 21, 52
40, 20, 52, 51
41, 21, 22, 53
42, 21, 53, 52
43, 22, 23, 54
44, 22, 54, 53
45, 23, 24, 55
46, 23, 55, 54
47, 24, 25, 56
48, 24, 56, 55
49, 25, 26, 57
50, 25, 57, 56
51, 26, 27, 58
52, 26, 58, 57
53, 27, 28, 59
54, 27, 59, 58
55, 28, 29, 60
56, 28, 60, 59
57, 29, 30, 61
58, 29, 61, 60
59, 30, 31, 62
60, 30, 62, 61
61, 32, 33, 64
62, 32, 64, 63
63, 33, 34, 65
64, 33, 65, 64
65, 34, 35, 66
66, 34, 66, 65
67, 35, 36, 67
68, 35, 67, 66
69, 36, 37, 68
70, 36, 68, 67
71, 37, 38, 69
72, 37, 69, 68
73, 38, 39, 70
74, 38, 70, 69
75, 39, 40, 71
76, 39, 71, 70
77, 40, 41, 72
78, 40, 72, 71
79, 41, 42, 73
80, 41, 73, 72
81, 42, 43, 74
82, 42, 74, 73
83, 43, 44, 75
84, 43, 75, 74
85, 44, 45, 76
86, 44, 76, 75
87, 45, 46, 77
88, 45, 77, 76
89, 46, 47, 78
90, 46, 78, 77
91, 47, 48, 79
92, 47, 79, 78
93, 48, 49, 80
94, 48, 80, 79
95, 49, 50, 81
96, 49, 81, 80
97, 50, 51, 82
98, 50, 82, 81
99, 51, 52, 83
100, 51, 83, 82
101, 52, 53, 84
102, 52, 84, 83
103, 53, 54, 85
104, 53, 85, 84
105, 54, 55, 86
106, 54, 86, 85
107, 55, 56, 87
108, 55, 87, 86
109, 56, 57, 88
110, 56, 88, 87
111, 57, 58, 89
112, 57, 89, 88
113, 58, 59, 90
114, 58, 90, 89
115, 59, 60, 91
116, 59, 91, 90
117, 60, 61, 92
118, 60, 92, 91
119, 61, 62, 93
120, 61, 93, 92
121, 63, 64, 95
122, 63, 95, 94
123, 64, 65, 96
124, 64, 96, 95
125, 65, 66, 97
126, 65, 97, 96
127, 66, 67, 98
128, 66, 98, 97
129, 67, 68, 99
130, 67, 99, 98
131, 68, 69, 100
132, 68, 100, 99
133, 69, 70, 101
134, 69, 101, 100
135, 70, 71, 102
136, 70, 102, 101
137, 71, 72, 103
138, 71, 103, 102
139, 72, 73, 104
140, 72, 104, 103
141, 73, 74, 105
142, 73, 105, 104
143, 74, 75, 106
144, 74, 106, 105
145, 75, 76, 107
146, 75, 107, 106
147, 76, 77, 108
148, 76, 108, 107
149, 77, 78, 109
150, 77, 109, 108
151, 78, 79, 110
152, 78, 110, 109
153, 79, 80, 111
154, 79, 111, 110
155, 80, 81, 112
156, 80, 112, 111
157, 81, 82, 113
158, 81, 113, 112
159, 82, 83, 114
160, 82, 114, 113
161, 83, 84, 115
162, 83, 115, 114
163, 84, 85, 116
164, 84, 116, 115
165, 85, 86, 117
166, 85, 117, 116
167, 86, 87, 118
168, 86, 118, 117
169, 87, 88, 119
170, 87, 119, 118
171, 88, 89, 120
172, 88, 120, 119
173, 89, 90, 121
174, 89, 121, 120
175, 90, 91, 122
176, 90, 122, 121
177, 91, 92, 123
178, 91, 123, 122
179, 92, 93, 124
180, 92, 124, 123
181, 94, 95, 126
182, 94, 126, 125
183, 95, 96, 127
184, 95, 127, 126
185, 96, 97, 128
186, 96, 128, 127
187, 97, 98, 129
188, 97, 129, 128
189, 98, 99, 130
190, 98, 130, 129
191, 99, 100, 131
192, 99, 131, 130
193, 100, 101, 132
194, 100, 132, 131
195, 101, 102, 133
196, 101, 133, 132
197, 102, 103, 134
198, 102, 134, 133
199, 103, 104, 135
200, 103, 135, 134
201, 104, 105, 136
202, 104, 136, 135
203, 105, 106, 137
204, 105, 137, 136
205, 106, 107, 138
206, 106, 138, 137
207, 107, 108, 139
208, 107, 139, 138
209, 108, 109, 140
210, 108, 140, 139
211, 109, 110, 141
212, 109, 141, 140
213, 110, 111, 142
214, 110, 142, 141
215, 111, 112, 143
216, 111, 143, 142
217, 112, 113, 144
218, 112, 144, 143
219, 113, 114, 145
220, 113, 145, 144
221, 114, 115, 146
222, 114, 146, 145
223, 115, 116, 147
224, 115, 147, 146
225, 116, 117, 148
226, 116, 148, 147
227, 117, 118, 149
228, 117, 149, 148
229, 118, 119, 150
230, 118, 150, 149
231, 119, 120, 151
232, 119, 151, 150
233, 120, 121, 152
234, 120, 152, 151
235, 121, 122, 153
236, 121, 153, 152
237, 122, 123, 154
238, 122, 154, 153
239, 123, 124, 155
240, 123, 155, 154
241, 280, 281, 157
242, 280, 157, 156
243, 281, 282, 158
244, 281, 158, 157
245, 282, 283, 159
246, 282, 159, 158
247, 283, 284, 160
248, 283, 160, 159
249, 284, 285, 161
250, 284, 161, 160
251, 285, 286, 162
252, 285, 162, 161
253, 286, 287, 163
254, 286, 163, 162
255, 287, 288, 164
256, 287, 164, 163
257, 288, 289, 165
258, 288, 165, 164
259, 289, 290, 166
260, 289, 166, 165
261, 290, 291, 167
262, 290, 167, 166
263, 291, 292, 168
264, 291, 168, 167
265, 292, 293, 169
266, 292, 169, 168
267, 293, 294, 170
268, 293, 170, 169
269, 294, 295, 171
270, 294, 171, 170
271, 295, 296, 172
272, 295, 172, 171
273, 296, 297, 173
274, 296, 173, 172
275, 297, 298, 174
276, 297, 174, 173
277, 298, 299, 175
278, 298, 175, 174
279, 299, 300, 176
280, 299, 176, 175
281, 300, 301, 177
282, 300, 177, 176
283, 301, 302, 178
284, 301, 178, 177
285, 302, 303, 179
286, 302, 179, 178
287, 303, 304, 180
288, 303, 180, 179
289, 304, 305, 181
290, 304, 181, 180
291, 305, 306, 182
292, 305, 182, 181
293, 306, 307, 183
294, 306, 183, 182
295, 307, 308, 184
296, 307, 184, 183
297, 308, 309, 185
298, 308, 185, 184
299, 309, 310, 186
300, 309, 186, 185
301, 156, 157, 188
302, 156, 188, 187
303, 157, 158, 189
304, 157, 189, 188
305, 158, 159, 190
306, 158, 190, 189
307, 159, 160, 191
308, 159, 191, 190
309, 160, 161, 192
310, 160, 192, 191
311, 161, 162, 193
312, 161, 193, 192
313, 162, 163, 194
314, 162, 194, 193
315, 163, 164, 195
316, 163, 195, 194
317, 164, 165, 196
318, 164, 196, 195
319, 165, 166, 197
320, 165, 197, 196
321, 166, 167, 198
322, 166, 198, 197
323, 167, 168, 199
324, 167, 199, 198
325, 168, 169, 200
326, 168, 200, 199
327, 169, 170, 201
328, 169, 201, 200
329, 170, 171, 202
330, 170, 202, 201
331, 171, 172, 203
332, 171, 203, 202
333, 172, 173, 204
334, 172, 204, 203
335, 173, 174, 205
336, 173, 205, 204
337, 174, 175, 206
338, 174, 206, 205
339, 175, 176, 207
340, 175, 207, 206
341, 176, 177, 208
342, 176, 208, 207
343, 177, 178, 209
344, 177, 209, 208
345, 178, 179, 210
346, 178, 210, 209
347, 179, 180, 211
348, 179, 211, 210
349, 180, 181, 212
350, 180, 212, 211
351, 181, 182, 213
352, 181, 213, 212
353, 182, 183, 214
354, 182, 214, 213
355, 183, 184, 215
356, 183, 215, 214
357, 184, 185, 216
358, 184, 216, 215
359, 185, 186, 217
360, 185, 217, 216
361, 187, 188, 219
362, 187, 219, 218
363, 188, 189, 220
364, 188, 220, 219
365, 189, 190, 221
366, 189, 221, 220
367, 190, 191, 222
368, 190, 222, 221
369, 191, 192, 223
370, 191, 223, 222
371, 192, 193, 224
372, 192, 224, 223
373, 193, 194, 225
374, 193, 225, 224
375, 194, 195, 226
376, 194, 226, 225
377, 195, 196, 227
378, 195, 227, 226
379, 196, 197, 228
380, 196, 228, 227
381, 197, 198, 229
382, 197, 229, 228
383, 198, 199, 230
384, 198, 230, 229
385, 199, 200, 231
386, 199, 231, 230
387, 200, 201, 232
388, 200, 232, 231
389, 201, 202, 233
390, 201, 233, 232
391, 202, 203, 234
392, 202, 234, 233
393, 203, 204, 235
394, 203, 235, 234
395, 204, 205, 236
396, 204, 236, 235
397, 205, 206, 237
398, 205, 237, 236
399, 206, 207, 238
400, 206, 238, 237
401, 207, 208, 239
402, 207, 239, 238
403, 208, 209, 240
404, 208, 240, 239
405, 209, 210, 241
406, 209, 241, 240
407, 210, 211, 242
408, 210, 242, 241
409, 211, 212, 243
410, 211, 243, 242
411, 212, 213, 244
412, 212, 244, 243
413, 213, 214, 245
414, 213, 245, 244
415, 214, 215, 246
416, 214, 246, 245
417, 215, 216, 247
418, 215, 247, 246
419, 216, 217, 248
420, 216, 248, 247
421, 218, 219, 250
422, 218, 250, 249
423, 219, 220, 251
424, 219, 251, 250
425, 220, 221, 252
426, 220, 252, 251
427, 221, 222, 253
428, 221, 253, 252
429, 222, 223, 254
430, 222, 254, 253
431, 223, 224, 255
432, 223, 255, 254
433, 224, 225, 256
434, 224, 256, 255
435, 225, 226, 257
436, 225, 257, 256
437, 226, 227, 258
438, 226, 258, 257
439, 227, 228, 259
440, 227, 259, 258
441, 228, 229, 260
442, 228, 260, 259
443, 229, 230, 261
444, 229, 261, 260
445, 230, 231, 262
446, 230, 262, 261
447, 231, 232, 263
448, 231, 263, 262
449, 232, 233, 264
450, 232, 264, 263
451, 233, 234, 265
452, 233, 265, 264
453, 234, 235, 266
454, 234, 266, 265
455, 235, 236, 267
456, 235, 267, 266
457, 236, 237, 268
458, 236, 268, 267
459, 237, 238, 269
460, 237, 269, 268
461, 238, 239, 270
462, 238, 270, 269
463, 239, 240, 271
464, 239, 271, 270
465, 240, 241, 272
466, 240, 272, 271
467, 241, 242, 273
468, 241, 273, 272
469, 242, 243, 274
470, 242, 274, 273
471, 243, 244, 275
472, 243, 275, 274
473, 244, 245, 276
474, 244, 276, 275
475, 245, 246, 277
476, 245, 277, 276
477, 246, 247, 278
478, 246, 278, 277
479, 247, 248, 279
480, 247, 279, 278
**
*ELEMENT, TYPE=COH2D4, ELSET=COHESIVE
481, 135, 136, 291, 290
482, 136, 137, 292, 291
483, 137, 138, 293, 292
484, 138, 139, 294, 293
485, 139, 140, 295, 294
486, 140, 141, 296, 295
487, 141, 142, 297, 296
488, 142, 143, 298, 297
489, 143, 144, 299, 298
490, 144, 145, 300, 299
491, 145, 146, 301, 300
492, 146, 147, 302, 301
493, 147, 148, 303, 302
494, 148, 149, 304, 303
495, 149, 150, 305, 304
496, 150, 151, 306, 305
497, 151, 152, 307, 306
498, 152, 153, 308, 307
499, 153, 154, 309, 308
500, 154, 155, 310, 309
**
*SOLID SECTION, ELSET=ARMS, MATERIAL=ARM_MAT
1.0
*COHESIVE SECTION, ELSET=COHESIVE, MATERIAL=COH_MAT, RESPONSE=TRACTION SEPARATION, THICKNESS=SPECIFIED
1.0
**
*MATERIAL, NAME=ARM_MAT
*ELASTIC
1000.0, 0.3
**
*MATERIAL, NAME=COH_MAT
*ELASTIC, TYPE=TRACTION
10000.0, 10000.0, 10000.0
*DAMAGE INITIATION, CRITERION=QUADS
5.0, 5.0, 5.0
*DAMAGE EVOLUTION, TYPE=ENERGY, MIXED MODE BEHAVIOR=BK, SOFTENING=LINEAR, POWER=1.0
0.05, 0.05, 0.05
**
*NSET, NSET=RIGHT_EDGE
31, 62, 93, 124, 155, 186, 217, 248, 279, 310
*NSET, NSET=TIP_TOP
249
*NSET, NSET=TIP_BOTTOM
1
**
*STEP, NAME=OPEN, NLGEOM=NO, INC=1000
*STATIC
0.003000, 0.600000, 1e-08, 0.030000
*BOUNDARY
RIGHT_EDGE, 1, 2, 0.0
TIP_TOP, 2, 2, 0.300000
TIP_BOTTOM, 2, 2, -0.300000
*OUTPUT, FIELD, FREQUENCY=1
*NODE OUTPUT
U, RF
*ELEMENT OUTPUT, ELSET=COHESIVE
SDEG, DMICRT
*OUTPUT, HISTORY, FREQUENCY=1
*NODE OUTPUT, NSET=TIP_TOP
U2, RF2
*NODE OUTPUT, NSET=TIP_BOTTOM
U2, RF2
*END STEP
